
Gurobi 10.0.3 (linux64, C++) logging started Wed Oct 25 16:56:52 2023

Set parameter LogFile to value "mip1.log"

Gurobi 10.0.3 (linux64, C++) logging started Wed Oct 25 16:58:43 2023

Set parameter LogFile to value "mip1.log"

Gurobi 10.0.3 (linux64, C++) logging started Wed Oct 25 18:12:20 2023

Set parameter LogFile to value "mip1.log"
